RT is False
Default write of storage_offers_DA.csv just to have a file (but constraint should be inactive)
Reading model...
...model read.
creating competitive generators file...
...competitive generators recorded.
Loading data...
.. day-ahead data with real-time VRE data read.
Compiling instance...
...instance created.
Creating Offer Mitigation (model will solve as dispatch if TRUE)...
...storage offer mitigation file created
Converting model to MPEC...
...converted
NOTE: initial MIP solve with only storage competitive to get feasible solution
Solving...

Welcome to IBM(R) ILOG(R) CPLEX(R) Interactive Optimizer 12.9.0.0
  with Simplex, Mixed Integer & Barrier Optimizers
5725-A06 5725-A29 5724-Y48 5724-Y49 5724-Y54 5724-Y55 5655-Y21
Copyright IBM Corp. 1988, 2019.  All Rights Reserved.

Type 'help' for a list of available commands.
Type 'help' followed by a command name for more
information on commands.

CPLEX> Logfile 'cplex.log' closed.
Logfile 'C:\Users\llavin\Desktop\test826\logs\tmpa1kgwh0v.cplex.log' open.
CPLEX> New value for parallel optimization mode: -1
CPLEX> New value for mixed integer optimality gap tolerance: 0.02
CPLEX> New value for emphasis for MIP optimization: 1
CPLEX> New value for integrality tolerance: 1e-12
CPLEX> New value for deterministic time limit in ticks: 50000
CPLEX> Problem 'C:\Users\llavin\Desktop\test826\logs\tmp4r5lmiys.pyomo.lp' read.
Read time = 0.24 sec. (13.64 ticks)
CPLEX> Problem name         : C:\Users\llavin\Desktop\test826\logs\tmp4r5lmiys.pyomo.lp
Objective sense      : Maximize
Variables            :   53815  [Nneg: 1,  Box: 22002,  Free: 4464,
                                 Binary: 27348]
Objective nonzeros   :    9031
Linear constraints   :  123235  [Less: 41356,  Greater: 59114,  Equal: 22765]
  Nonzeros           :  292557
  RHS nonzeros       :   67515

Variables            : Min LB: -5000.000        Max UB: 1000000.       
Objective nonzeros   : Min   : 0.001000000      Max   : 2500.000       
Linear constraints   :
  Nonzeros           : Min   : 0.07500000       Max   : 1000000.       
  RHS nonzeros       : Min   : 0.001000000      Max   : 1000000.       
CPLEX> CPXPARAM_Parallel                                -1
CPXPARAM_Emphasis_MIP                            1
CPXPARAM_DetTimeLimit                            50000
CPXPARAM_MIP_Tolerances_MIPGap                   0.02
CPXPARAM_MIP_Tolerances_Integrality              9.9999999999999998e-13
Tried aggregator 3 times.
MIP Presolve eliminated 88710 rows and 19014 columns.
MIP Presolve added 3380 rows and 0 columns.
MIP Presolve modified 24862 coefficients.
Aggregator did 13003 substitutions.
Reduced MIP has 24902 rows, 21242 columns, and 71213 nonzeros.
Reduced MIP has 8403 binaries, 0 generals, 0 SOSs, and 0 indicators.
Presolve time = 0.31 sec. (172.97 ticks)
Probing fixed 417 vars, tightened 4003 bounds.
Probing time = 0.06 sec. (18.45 ticks)
Tried aggregator 2 times.
MIP Presolve eliminated 935 rows and 835 columns.
MIP Presolve modified 3034 coefficients.
Aggregator did 24 substitutions.
Reduced MIP has 23943 rows, 20383 columns, and 68431 nonzeros.
Reduced MIP has 7986 binaries, 0 generals, 0 SOSs, and 0 indicators.
Presolve time = 0.11 sec. (89.05 ticks)
Probing fixed 0 vars, tightened 301 bounds.
Probing time = 0.14 sec. (22.76 ticks)
Clique table members: 44902.
MIP emphasis: integer feasibility.
MIP search method: dynamic search.
Parallel mode: opportunistic, using up to 32 threads.
Root relaxation solution time = 0.48 sec. (645.16 ticks)

        Nodes                                         Cuts/
   Node  Left     Objective  IInf  Best Integer    Best Bound    ItCnt     Gap

      0     0     3942.1988   197                   3942.1988     5375         
      0    15    infeasible                         3930.1434     5521         
Elapsed time = 3.56 sec. (1831.19 ticks, tree = 0.02 MB, solutions = 0)
    551   197     1021.5444    15                   3930.0522    15144         
    908   384     3929.7529     2                   3930.0522    32296         
*  1220   509      integral     0     3702.8804     3930.0522    39048    6.14%
   1808   162     3896.0938     1     3702.8804     3930.0522    49317    6.14%
   2653   421     3929.1542     1     3702.8804     3930.0522    50630    6.14%
   3577   848     3887.5329     1     3702.8804     3930.0522    54395    6.14%
   4466  1441     3909.5810     1     3702.8804     3930.0522    57392    6.14%
   5479  2019     3758.1703     1     3702.8804     3930.0522    60025    6.14%
   6450  2853     3904.2895     1     3702.8804     3930.0522    63782    6.14%
   8526  4463    infeasible           3702.8804     3928.2563    75458    6.09%
Elapsed time = 20.28 sec. (5634.51 ticks, tree = 116.08 MB, solutions = 2)
  14189  1464     3771.8096     3     3702.8804     3914.2927    92305    5.71%
  19919  4476     3733.5354     9     3702.8804     3914.2927   140344    5.71%
  28639  5641        cutoff           3702.8804     3914.2927   172376    5.71%
  35498  5598     3771.8096     5     3702.8804     3784.8081   223045    2.21%

Cover cuts applied:  2
Implied bound cuts applied:  46
Flow cuts applied:  2
Mixed integer rounding cuts applied:  6
Gomory fractional cuts applied:  3

Root node processing (before b&c):
  Real time             =    2.47 sec. (1814.94 ticks)
Parallel b&c, 32 threads:
  Real time             =   32.39 sec. (8049.62 ticks)
  Sync time (average)   =    1.80 sec.
  Wait time (average)   =    0.16 sec.
                          ------------
Total (root+branch&cut) =   34.86 sec. (9864.57 ticks)

Solution pool: 2 solutions saved.

MIP - Integer optimal, tolerance (0.02/1e-06):  Objective =  3.7028803685e+03
Current MIP best bound =  3.7768973638e+03 (gap = 74.017, 2.00%)
Solution time =   34.89 sec.  Iterations = 249071  Nodes = 36348 (5426)
Deterministic time = 9864.72 ticks  (282.74 ticks/sec)

CPLEX> Incumbent solution written to file 'C:\Users\llavin\Desktop\test826\logs\tmpzyzymmu7.cplex.sol'.
CPLEX> NOTE: no warmstart specified for MIP iteration, default behavior is true
NOTE: resolving with all competitive generators using storage-only solution to warmstart
Solving...

Welcome to IBM(R) ILOG(R) CPLEX(R) Interactive Optimizer 12.9.0.0
  with Simplex, Mixed Integer & Barrier Optimizers
5725-A06 5725-A29 5724-Y48 5724-Y49 5724-Y54 5724-Y55 5655-Y21
Copyright IBM Corp. 1988, 2019.  All Rights Reserved.

Type 'help' for a list of available commands.
Type 'help' followed by a command name for more
information on commands.

CPLEX> Logfile 'cplex.log' closed.
Logfile 'C:\Users\llavin\Desktop\test826\logs\tmp1tvke5tr.cplex.log' open.
CPLEX> New value for parallel optimization mode: -1
CPLEX> New value for mixed integer optimality gap tolerance: 0.02
CPLEX> New value for emphasis for MIP optimization: 1
CPLEX> New value for integrality tolerance: 1e-12
CPLEX> New value for deterministic time limit in ticks: 50000
CPLEX> Problem 'C:\Users\llavin\Desktop\test826\logs\tmp4f22nrqw.pyomo.lp' read.
Read time = 0.20 sec. (13.66 ticks)
CPLEX> MIP start file 'C:\Users\llavin\Desktop\test826\logs\tmpfmatm3za.cplex.mst' read.
CPLEX> Problem name         : C:\Users\llavin\Desktop\test826\logs\tmp4f22nrqw.pyomo.lp
Objective sense      : Maximize
Variables            :   54535  [Nneg: 1,  Box: 22722,  Free: 4464,
                                 Binary: 27348]
Objective nonzeros   :    9727
Linear constraints   :  123235  [Less: 41356,  Greater: 59114,  Equal: 22765]
  Nonzeros           :  292557
  RHS nonzeros       :   67515

Variables            : Min LB: -5000.000        Max UB: 1000000.       
Objective nonzeros   : Min   : 0.001000000      Max   : 2500.000       
Linear constraints   :
  Nonzeros           : Min   : 0.07500000       Max   : 1000000.       
  RHS nonzeros       : Min   : 0.001000000      Max   : 1000000.       
CPLEX> CPXPARAM_Parallel                                -1
CPXPARAM_Emphasis_MIP                            1
CPXPARAM_DetTimeLimit                            50000
CPXPARAM_MIP_Tolerances_MIPGap                   0.02
CPXPARAM_MIP_Tolerances_Integrality              9.9999999999999998e-13
Warning:  No solution found from 1 MIP starts.
Retaining values of one MIP start for possible repair.
Tried aggregator 3 times.
MIP Presolve eliminated 88710 rows and 19734 columns.
MIP Presolve added 3380 rows and 0 columns.
MIP Presolve modified 24862 coefficients.
Aggregator did 13003 substitutions.
Reduced MIP has 24902 rows, 21242 columns, and 71213 nonzeros.
Reduced MIP has 8403 binaries, 0 generals, 0 SOSs, and 0 indicators.
Presolve time = 0.25 sec. (173.34 ticks)
Probing fixed 417 vars, tightened 4003 bounds.
Probing time = 0.05 sec. (18.45 ticks)
Tried aggregator 2 times.
MIP Presolve eliminated 935 rows and 835 columns.
MIP Presolve modified 3034 coefficients.
Aggregator did 24 substitutions.
Reduced MIP has 23943 rows, 20383 columns, and 68431 nonzeros.
Reduced MIP has 7986 binaries, 0 generals, 0 SOSs, and 0 indicators.
Presolve time = 0.09 sec. (89.06 ticks)
Probing fixed 0 vars, tightened 301 bounds.
Probing time = 0.13 sec. (22.76 ticks)
Clique table members: 44902.
MIP emphasis: integer feasibility.
MIP search method: dynamic search.
Parallel mode: opportunistic, using up to 32 threads.
Root relaxation solution time = 0.42 sec. (677.92 ticks)

        Nodes                                         Cuts/
   Node  Left     Objective  IInf  Best Integer    Best Bound    ItCnt     Gap

      0     0    59165.9924   213                  59165.9924     5671         
      0     0    59093.0531    89                    Cuts: 96     5762         
      0     0    58851.9807    85                    Cuts: 71     5831         
      0     0    58707.8889    83                    Cuts: 45     5868         
Repair heuristic found nothing.
      0     2    58707.8889    83                    Cuts: 23     5868         
Elapsed time = 4.23 sec. (1756.62 ticks, tree = 0.02 MB, solutions = 0)
    608   453    55536.6257    47                  58388.9222    11657         
   1063   850    55182.1806    68                  58388.9222    20528         
   1664  1468    48827.6524    41                  58388.9222    40986         
   2188  1634    51916.8220    56                  58388.9222    47170         
   2817  2024    34075.4666    64                  58388.9222    57413         
   3454  2503    54615.9402    13                  58388.9222    69796         
*  4037+ 1086                        55606.2574    58388.9222             5.00%
   4636   837    56385.8994    36    55606.2574    58388.9222   100134    5.00%
   5449   800    57052.2985    48    55606.2574    58388.9222   106773    5.00%
   8508  2398    57204.0789    43    55606.2574    58186.3659   131373    4.64%
Elapsed time = 19.95 sec. (4860.23 ticks, tree = 19.50 MB, solutions = 1)
   8525  2906    infeasible          55606.2574    58186.3659   147832    4.64%
  10265   898    55661.6617    15    55606.2574    57576.5301   157666    3.54%
  14985  3827    56392.3927    68    55606.2574    57541.6925   186036    3.48%
  19626  5891    56183.5509    18    55606.2574    57509.7348   219663    3.42%
  21721  6371        cutoff          55606.2574    57509.7348   228706    3.42%
  21737  7004    56755.5076    49    55606.2574    57173.1122   242069    2.82%

Clique cuts applied:  1
Cover cuts applied:  7
Implied bound cuts applied:  55
Flow cuts applied:  105
Mixed integer rounding cuts applied:  10
Zero-half cuts applied:  1
Gomory fractional cuts applied:  5

Root node processing (before b&c):
  Real time             =    2.45 sec. (1705.94 ticks)
Parallel b&c, 32 threads:
  Real time             =   38.52 sec. (9872.31 ticks)
  Sync time (average)   =    5.03 sec.
  Wait time (average)   =    0.20 sec.
                          ------------
Total (root+branch&cut) =   40.97 sec. (11578.25 ticks)

Solution pool: 1 solution saved.

MIP - Integer optimal, tolerance (0.02/1e-06):  Objective =  5.5606257441e+04
Current MIP best bound =  5.6717487802e+04 (gap = 1111.23, 2.00%)
Solution time =   41.00 sec.  Iterations = 245159  Nodes = 21739 (7179)
Deterministic time = 11578.40 ticks  (282.40 ticks/sec)

CPLEX> Incumbent solution written to file 'C:\Users\llavin\Desktop\test826\logs\tmpcf9gfx_k.cplex.sol'.
CPLEX> Exporting results... 
